p cnf 7230 17
-1930 -2100 3281 0
2100 -3281 0
-1936 -2254 -3286 0
-1934 -2638 -3284 0
-1932 -2122 -3282 0
1936 -3287 0
1934 -3285 0
1932 -3283 0
3286 3287 0
3284 3285 0
3282 3283 0
2254 -3287 0
2638 -3285 0
2122 -3283 0
1938 -3289 0
3280 3281 0
-3280 -3281 0
